233033
228606
228316
228316
228316
228137
228137
228034
226908
224599
223916
223597
223597
218035
215724
215724
214614
214614
214614
210743
210743
209535
208175
208175
208175
208175
208175
208175
208175
208175
207940
207075
207075
207075
207075
207075
207075
206792
204691
202462
199120
199120
199120
199120
199120
199120
199120
199120
199120
199120
199120
198058
198058
198058
198058
198058
198058
198058
198058
198058
198058
198058
198058
198058
196649
196307
196307
196307
196307
196307
196307
196307
192680
192680
192680
192680
192680
192680
192146
192146
192146
191503
191503
191503
189642
189642
188453
188453
188453
188453
188453
188453
188421
186783
186783
186231
186231
184509
180439
180439
